Set parameter Username
Set parameter Threads to value 1
Academic license - for non-commercial use only - expires 2022-07-11
Set parameter TimeLimit to value 300
Gurobi Optimizer version 9.5.1 build v9.5.1rc2 (linux64)
Thread count: 2 physical cores, 4 logical processors, using up to 1 threads
Optimize a model with 1006 rows, 905 columns and 4295 nonzeros
Model fingerprint: 0xd33a614b
Variable types: 40 continuous, 865 integer (865 binary)
Coefficient statistics:
  Matrix range     [1e-01, 4e+02]
  Objective range  [4e-02, 5e-01]
  Bounds range     [1e+00, 1e+00]
  RHS range        [1e+00, 9e+02]
Presolve removed 288 rows and 63 columns
Presolve time: 0.04s
Presolved: 718 rows, 842 columns, 3680 nonzeros
Variable types: 38 continuous, 804 integer (804 binary)
Found heuristic solution: objective 3.9320505

Root relaxation: objective 2.379489e+00, 854 iterations, 0.01 seconds (0.01 work units)

    Nodes    |    Current Node    |     Objective Bounds      |     Work
 Expl Unexpl |  Obj  Depth IntInf | Incumbent    BestBd   Gap | It/Node Time

     0     0    2.37949    0   75    3.93205    2.37949  39.5%     -    0s
H    0     0                       3.5832449    2.37949  33.6%     -    0s
H    0     0                       3.5214525    2.37949  32.4%     -    0s
     0     0    2.47537    0  101    3.52145    2.47537  29.7%     -    0s
H    0     0                       3.4603631    2.47537  28.5%     -    0s
     0     0    2.47541    0  101    3.46036    2.47541  28.5%     -    0s
     0     0    2.51287    0   93    3.46036    2.51287  27.4%     -    0s
H    0     0                       3.4596713    2.51287  27.4%     -    0s
     0     0    2.51671    0   93    3.45967    2.51671  27.3%     -    0s
     0     0    2.57419    0  126    3.45967    2.57419  25.6%     -    0s
H    0     0                       3.4128145    2.57419  24.6%     -    0s
H    0     0                       3.4032258    2.57419  24.4%     -    0s
     0     0    2.58235    0  122    3.40323    2.58235  24.1%     -    0s
     0     0    2.58379    0  114    3.40323    2.58379  24.1%     -    0s
     0     0    2.58422    0  123    3.40323    2.58422  24.1%     -    0s
     0     0    2.58435    0  115    3.40323    2.58435  24.1%     -    0s
     0     0    2.58435    0  114    3.40323    2.58435  24.1%     -    0s
     0     0    2.60048    0  131    3.40323    2.60048  23.6%     -    0s
H    0     0                       3.3002146    2.60048  21.2%     -    0s
     0     0    2.60509    0  114    3.30021    2.60509  21.1%     -    0s
     0     0    2.60844    0  121    3.30021    2.60844  21.0%     -    0s
     0     0    2.60878    0  130    3.30021    2.60878  21.0%     -    0s
     0     0    2.60993    0  125    3.30021    2.60993  20.9%     -    0s
     0     0    2.60994    0  132    3.30021    2.60994  20.9%     -    0s
     0     0    2.61231    0  118    3.30021    2.61231  20.8%     -    0s
     0     0    2.61293    0  104    3.30021    2.61293  20.8%     -    0s
     0     0    2.61335    0  112    3.30021    2.61335  20.8%     -    0s
     0     0    2.61366    0  116    3.30021    2.61366  20.8%     -    0s
     0     0    2.61369    0  121    3.30021    2.61369  20.8%     -    0s
     0     0    2.61563    0  106    3.30021    2.61563  20.7%     -    0s
H    0     0                       3.2876844    2.61563  20.4%     -    0s
     0     0    2.61667    0  117    3.28768    2.61667  20.4%     -    0s
     0     0    2.61701    0  123    3.28768    2.61701  20.4%     -    0s
     0     0    2.61703    0  126    3.28768    2.61703  20.4%     -    0s
     0     0    2.61815    0  126    3.28768    2.61815  20.4%     -    0s
     0     0    2.61938    0  148    3.28768    2.61938  20.3%     -    0s
     0     0    2.61990    0  135    3.28768    2.61990  20.3%     -    0s
     0     0    2.62000    0  139    3.28768    2.62000  20.3%     -    0s
     0     0    2.62321    0  121    3.28768    2.62321  20.2%     -    0s
H    0     0                       3.2281199    2.62321  18.7%     -    0s
     0     0    2.62390    0  136    3.22812    2.62390  18.7%     -    0s
     0     0    2.62443    0  123    3.22812    2.62443  18.7%     -    0s
     0     0    2.62473    0  121    3.22812    2.62473  18.7%     -    0s
     0     0    2.62476    0  106    3.22812    2.62476  18.7%     -    0s
     0     0    2.62581    0  125    3.22812    2.62581  18.7%     -    0s
H    0     0                       3.0757721    2.62581  14.6%     -    0s
     0     0    2.62619    0  133    3.07577    2.62619  14.6%     -    0s
     0     0    2.62662    0  142    3.07577    2.62662  14.6%     -    0s
     0     0    2.62663    0  136    3.07577    2.62663  14.6%     -    0s
     0     0    2.62668    0  119    3.07577    2.62668  14.6%     -    0s
     0     0    2.62668    0  118    3.07577    2.62668  14.6%     -    0s
H    0     0                       3.0134973    2.62668  12.8%     -    0s
H    0     0                       3.0104086    2.62771  12.7%     -    0s
     0     2    2.62771    0  118    3.01041    2.62771  12.7%     -    1s
H   64    27                       2.7983344    2.63857  5.71%  86.1    1s
*  291    99              16       2.7801797    2.70449  2.72%  60.5    2s
H  316    41                       2.7472128    2.71342  1.23%  59.6    2s
*  360     1              14       2.7409478    2.74074  0.01%  56.5    2s

Cutting planes:
  Gomory: 2
  Lift-and-project: 14
  Cover: 17
  Implied bound: 9
  Clique: 8
  MIR: 158
  StrongCG: 6
  GUB cover: 2
  RLT: 6
  Relax-and-lift: 125

Explored 361 nodes (24750 simplex iterations) in 2.25 seconds (1.60 work units)
Thread count was 1 (of 4 available processors)

Solution count 10: 2.74095 2.74721 2.78018 ... 3.30021

Optimal solution found (tolerance 1.00e-04)
Best objective 2.740947846594e+00, best bound 2.740736800646e+00, gap 0.0077%
